
   AbsCon 1.41 (January, 2014) - defaultConfiguration

   
   instance
        framework=CSP  name=Isomorphism-/cluster/gpg/ciaran/sip-benchmarks/benchmarks/LV/g8-/cluster/gpg/ciaran/sip-benchmarks/benchmarks/LV/g44
        parameters=/cluster/gpg/ciaran/sip-benchmarks/benchmarks/LV/g8,/cluster/gpg/ciaran/sip-benchmarks/benchmarks/LV/g44

   loading variables...
        nbVariables=30  nbDomainTypes=1  nbTotalValues=3840  domainSizes=(128:30)
          =>  wckTime=0.219  cpuTime=0.339  mem=9M220

   loading objectives...

   loading constraints...
        nbConstraints=63  nbSpecificConstraints=1  nbExtensionStructures=(1,shared:61)  nbConflictsStructures=(1,shared:61,unbuilt:1)
        degrees=(2:1)(3:3)(4:10)...(6:6)(7:4)(8:3)  arities=(2:62)(30:1)  types=(AllDifferent:1)(ConstraintHardExtensionV-Bits:62)
          =>  wckTime=0.28  cpuTime=0.398  mem=5M190

   INFO : <!-- Start saving the XML representation -->

   INFO : <!-- Stop saving the XML representation of g44.xml -->

   Solver SolverBacktrack being built... 
          =>  wckTime=0.454  cpuTime=0.549  mem=18M998

    instantiation X0=82 X1=26 X2=124 X3=123 X4=107 X5=25 X6=103 X7=61 X8=81 X9=101 X10=127 X11=49 X12=84 X13=125 X14=80 X15=116 X16=96 X17=50 X18=76 X19=120 X20=104 X21=118 X22=48 X23=28 X24=88 X25=111 X26=117 X27=2 X28=42 X29=91 

    solution X0=82 X1=26 X2=124 X3=123 X4=107 X5=25 X6=103 X7=61 X8=81 X9=101 X10=127 X11=49 X12=84 X13=125 X14=80 X15=116 X16=96 X17=50 X18=76 X19=120 X20=104 X21=118 X22=48 X23=28 X24=88 X25=111 X26=117 X27=2 X28=42 X29=91 

   
   search
        run=0  nbConstraintChecks=63  depth=(min:0,max:29,avg:2)  nbEffectivePropagations=662  nbRevisions=2294  nbUselessRevisions=2013
        nbAssignments=85  nbFailedAssignments=49  nbBacktracks=6  nbVisitedNodes=137  nbRestartNogoods=0  nbFoundSolutions=1
        upperBound=9223372036854775807
          =>  wckTime=0.429  cpuTime=0.959  mem=32M223

   
   global
        nbConstraintChecks=63  nbEffectivePropagations=662  nbRevisions=2294  nbUselessRevisions=2013  nbRestartNogoods=0  solvingWckTime=0.429
        expiredTime=no  totalExploration=no  nbFoundSolutions=1  firstSolutionCpuTime=0.957  Stop=REACHED_GOAL
          =>  wckTime=0.883  cpuTime=0.959  mem=32M223

s SATISFIABLE
v X0=82 X1=26 X2=124 X3=123 X4=107 X5=25 X6=103 X7=61 X8=81 X9=101 X10=127 X11=49 X12=84 X13=125 X14=80 X15=116 X16=96 X17=50 X18=76 X19=120 X20=104 X21=118 X22=48 X23=28 X24=88 X25=111 X26=117 X27=2 X28=42 X29=91 
d NODES 85

   totalWckTime=0.756  totalCpuTime=0.96
